NAME: cuum60.tsp
TYPE: TSP
COMMENT: User-generated TSP file
DIMENSION: 60
EDGE_WEIGHT_TYPE: EUC_2D
NODE_COORD_SECTION
1 34.0 60.0
2 26.0 47.0
3 28.0 59.0
4 19.0 55.0
5 1.0 36.0
6 57.0 14.0
7 19.0 56.0
8 58.0 41.0
9 34.0 47.0
10 42.0 46.0
11 43.0 26.0
12 34.0 25.0
13 53.0 37.0
14 52.0 16.0
15 59.0 36.0
16 38.0 42.0
17 29.0 48.0
18 13.0 46.0
19 57.0 10.0
20 44.0 50.0
21 48.0 48.0
22 26.0 28.0
23 19.0 10.0
24 8.0 45.0
25 42.0 38.0
26 17.0 42.0
27 6.0 48.0
28 39.0 21.0
29 27.0 48.0
30 60.0 8.0
31 9.0 31.0
32 22.0 49.0
33 54.0 16.0
34 33.0 17.0
35 15.0 23.0
36 58.0 9.0
37 55.0 36.0
38 31.0 11.0
39 10.0 34.0
40 43.0 53.0
41 49.0 57.0
42 45.0 15.0
43 25.0 30.0
44 34.0 58.0
45 2.0 30.0
46 45.0 6.0
47 42.0 41.0
48 9.0 50.0
49 55.0 23.0
50 39.0 57.0
51 8.0 17.0
52 22.0 31.0
53 20.0 46.0
54 14.0 5.0
55 39.0 18.0
56 26.0 56.0
57 22.0 14.0
58 56.0 41.0
59 18.0 7.0
60 11.0 2.0
EOF





